c Random generated cnf formula, satisfiable: true
p cnf 10 50
-6 -1 10 0
1 -4 -6 0
-1 10 7 0
4 -1 -10 0
7 -3 -1 0
7 10 -6 0
-7 -10 -8 0
-10 9 8 0
-7 10 5 0
5 10 -3 0
8 -7 1 0
10 2 -6 0
7 -2 10 0
-7 -3 10 0
6 -9 1 0
7 1 4 0
4 -5 9 0
-2 10 3 0
3 2 1 0
7 -4 2 0
4 -5 2 0
-2 -7 4 0
-8 3 -4 0
4 7 10 0
-7 -8 9 0
-2 8 -5 0
-8 -7 -2 0
10 -2 -1 0
3 6 -1 0
2 -3 10 0
-6 4 -3 0
-8 -10 -6 0
6 -2 1 0
2 -7 -3 0
4 -5 10 0
7 -4 -3 0
4 -2 -9 0
4 3 10 0
4 10 9 0
-8 3 -4 0
-4 2 9 0
10 -4 -6 0
10 -3 5 0
1 8 -5 0
-2 4 1 0
3 -10 -5 0
3 -6 -9 0
-5 9 8 0
4 -3 10 0
-3 -8 7 0
